NAME : XML100_1243_21
DIMENSION : 101
NB_CLUSTERS : 3
CLUSTERING_ALG : KMeans
CLUSTERING_PARAMS : k(2)
CLUSTERS
1 0
2 1 2 6 7 8 9 11 13 15 16 19 20 24 25 26 30 34 37 38 39 40 41 42 43 44 45 47 48 49 51 53 54 57 58 59 61 66 68 69 70 71 73 74 76 77 82 84 85 86 88 92 97 100
3 3 4 5 10 12 14 17 18 21 22 23 27 28 29 31 32 33 35 36 46 50 52 55 56 60 62 63 64 65 67 72 75 78 79 80 81 83 87 89 90 91 93 94 95 96 98 99
EOF